(declare-datatypes ((T 0)) (((nT) (cons (id Int) (arr (Array Int T)) ) )) )
(declare-const t1 T)
(declare-const t2 T)
(assert (not (= t1 nT)))
(assert (not (= t2 nT)))
(declare-const a1 (Array Int T))
(declare-const a2 (Array Int T))(assert (= (select (arr t2) 3) (select a2 2)))
(assert (not (= (select a2 (- (id (select (arr t1) (id (select (arr t2) (id t2))))) (- (* 3 3) 2))) (select a1 2))))
(assert (= (select (arr t2) (- (id (select a1 1)) (id (select (arr (select a1 2)) 1)))) (select a1 3)))
(assert (= (select (arr t1) 1) (select a1 (id (select a1 3)))))
(assert (= (select a1 (- (id (select (arr t2) 2)) (- (id (select a2 3)) (id (select (arr (select a2 (id t1))) 3))))) t1))
(assert (= (select a1 1) t2))
(assert (= (select a2 (id (select (arr (select (arr (select a2 (* 3 (id t2)))) 3)) 2))) t2))
(assert (= t2 (select a1 (* (* (- 1 (* (id t1) (* 1 (id t2)))) 1) 1))))
(assert (= (select a2 (id t1)) t2))
(assert (= (select (arr (select a1 (id (select a2 (id t2))))) (id (select a1 1))) t1))
(check-sat)
